p cnf 530 1264
a 226 182 203 219 342 345 349 352 358 361 365 368 373 376 380 383 390 393 496 398 403 406 410 413 419 422 426 429 517 332 435 438 7 13 24 30 2 1 40 18 6 12 35 23 29 50 45 60 55 70 65 80 75 85 90 95 105 100 110 115 120 130 125 135 140 145 181 150 176 158 154 171 163 167 202 197 192 188 218 213 209 225 241 236 231 250 245 255 260 265 275 270 280 285 290 299 295 304 309 314 319 323 327 331 337 0
d 341 181 202 218 225 241 0
d 434 327 331 337 2 517 0
d 397 2 496 319 323 13 0
d 3 2 0
d 4 1 2 0
d 5 1 2 0
d 8 7 0
d 9 6 7 0
d 10 6 7 0
d 11 1 2 6 7 0
d 14 13 0
d 15 12 13 0
d 16 12 13 0
d 17 1 2 6 7 12 13 0
d 19 6 12 0
d 20 18 6 12 0
d 21 18 6 12 0
d 22 1 2 6 7 12 13 18 0
d 25 24 0
d 26 23 24 0
d 27 23 24 0
d 28 1 2 6 7 12 13 18 23 24 0
d 31 30 0
d 32 29 30 0
d 33 29 30 0
d 34 1 2 6 7 12 13 18 23 24 29 30 0
d 36 23 29 0
d 37 35 23 29 0
d 38 35 23 29 0
d 39 1 2 6 7 12 13 18 23 24 29 30 35 0
d 41 18 35 0
d 42 40 18 35 0
d 43 40 18 35 0
d 44 1 2 6 7 12 13 18 23 24 29 30 35 40 0
d 46 7 12 0
d 47 45 7 12 0
d 48 45 7 12 0
d 49 1 2 6 7 12 13 18 23 24 29 30 35 40 45 0
d 51 45 35 0
d 52 50 45 35 0
d 53 50 45 35 0
d 54 1 2 6 7 12 13 18 23 24 29 30 35 40 45 50 0
d 56 6 13 0
d 57 55 6 13 0
d 58 55 6 13 0
d 59 1 2 6 7 12 13 18 23 24 29 30 35 40 45 50 55 0
d 61 55 35 0
d 62 60 55 35 0
d 63 60 55 35 0
d 64 1 2 6 7 12 13 18 23 24 29 30 35 40 45 50 55 60 0
d 66 7 13 0
d 67 65 7 13 0
d 68 65 7 13 0
d 69 1 2 6 7 12 13 18 23 24 29 30 35 40 45 50 55 60 65 0
d 71 65 35 0
d 72 70 65 35 0
d 73 70 65 35 0
d 74 1 2 6 7 12 13 18 23 24 29 30 35 40 45 50 55 60 65 70 0
d 76 24 29 0
d 77 75 24 29 0
d 78 75 24 29 0
d 79 1 2 6 7 12 13 18 23 24 29 30 35 40 45 50 55 60 65 70 75 0
d 81 18 75 0
d 82 80 18 75 0
d 83 80 18 75 0
d 84 1 2 6 7 12 13 18 23 24 29 30 35 40 45 50 55 60 65 70 75 80 0
d 86 45 75 0
d 87 85 45 75 0
d 88 85 45 75 0
d 89 1 2 6 7 12 13 18 23 24 29 30 35 40 45 50 55 60 65 70 75 80 85 0
d 91 55 75 0
d 92 90 55 75 0
d 93 90 55 75 0
d 94 1 2 6 7 12 13 18 23 24 29 30 35 40 45 50 55 60 65 70 75 80 85 90 0
d 96 65 75 0
d 97 95 65 75 0
d 98 95 65 75 0
d 99 1 2 6 7 12 13 18 23 24 29 30 35 40 45 50 55 60 65 70 75 80 85 90 95 0
d 101 23 30 0
d 102 100 23 30 0
d 103 100 23 30 0
d 104 1 2 6 7 12 13 18 23 24 29 30 35 40 45 50 55 60 65 70 75 80 85 90 95 100 0
d 106 18 100 0
d 107 105 18 100 0
d 108 105 18 100 0
d 109 1 2 6 7 12 13 18 23 24 29 30 35 40 45 50 55 60 65 70 75 80 85 90 95 100 105 0
d 111 45 100 0
d 112 110 45 100 0
d 113 110 45 100 0
d 114 1 2 6 7 12 13 18 23 24 29 30 35 40 45 50 55 60 65 70 75 80 85 90 95 100 105 110 0
d 116 55 100 0
d 117 115 55 100 0
d 118 115 55 100 0
d 119 1 2 6 7 12 13 18 23 24 29 30 35 40 45 50 55 60 65 70 75 80 85 90 95 100 105 110 115 0
d 121 65 100 0
d 122 120 65 100 0
d 123 120 65 100 0
d 124 1 2 6 7 12 13 18 23 24 29 30 35 40 45 50 55 60 65 70 75 80 85 90 95 100 105 110 115 120 0
d 126 24 30 0
d 127 125 24 30 0
d 128 125 24 30 0
d 129 1 2 6 7 12 13 18 23 24 29 30 35 40 45 50 55 60 65 70 75 80 85 90 95 100 105 110 115 120 125 0
d 131 18 125 0
d 132 130 18 125 0
d 133 130 18 125 0
d 134 1 2 6 7 12 13 18 23 24 29 30 35 40 45 50 55 60 65 70 75 80 85 90 95 100 105 110 115 120 125 130 0
d 136 45 125 0
d 137 135 45 125 0
d 138 135 45 125 0
d 139 1 2 6 7 12 13 18 23 24 29 30 35 40 45 50 55 60 65 70 75 80 85 90 95 100 105 110 115 120 125 130 135 0
d 141 55 125 0
d 142 140 55 125 0
d 143 140 55 125 0
d 144 1 2 6 7 12 13 18 23 24 29 30 35 40 45 50 55 60 65 70 75 80 85 90 95 100 105 110 115 120 125 130 135 140 0
d 146 65 125 0
d 147 145 65 125 0
d 148 145 65 125 0
d 149 1 2 6 7 12 13 18 23 24 29 30 35 40 45 50 55 60 65 70 75 80 85 90 95 100 105 110 115 120 125 130 135 140 145 0
d 151 150 2 0
d 152 150 2 0
d 153 1 2 6 7 12 13 18 23 24 29 30 35 40 45 50 55 60 65 70 75 80 85 90 95 100 105 110 115 120 125 130 135 140 145 150 0
d 155 154 13 0
d 156 154 13 0
d 157 1 2 6 7 12 13 18 23 24 29 30 35 40 45 50 55 60 65 70 75 80 85 90 95 100 105 110 115 120 125 130 135 140 145 150 154 0
d 159 7 154 0
d 160 158 7 154 0
d 161 158 7 154 0
d 162 1 2 6 7 12 13 18 23 24 29 30 35 40 45 50 55 60 65 70 75 80 85 90 95 100 105 110 115 120 125 130 135 140 145 150 154 158 0
d 164 163 24 0
d 165 163 24 0
d 166 1 2 6 7 12 13 18 23 24 29 30 35 40 45 50 55 60 65 70 75 80 85 90 95 100 105 110 115 120 125 130 135 140 145 150 154 158 163 0
d 168 167 30 0
d 169 167 30 0
d 170 1 2 6 7 12 13 18 23 24 29 30 35 40 45 50 55 60 65 70 75 80 85 90 95 100 105 110 115 120 125 130 135 140 145 150 154 158 163 167 0
d 172 163 167 0
d 173 171 163 167 0
d 174 171 163 167 0
d 175 1 2 6 7 12 13 18 23 24 29 30 35 40 45 50 55 60 65 70 75 80 85 90 95 100 105 110 115 120 125 130 135 140 145 150 154 158 163 167 171 0
d 177 158 171 0
d 178 176 158 171 0
d 179 176 158 171 0
d 180 1 2 6 7 12 13 18 23 24 29 30 35 40 45 50 55 60 65 70 75 80 85 90 95 100 105 110 115 120 125 130 135 140 145 150 154 158 163 167 171 176 0
d 183 150 182 0
d 184 150 182 176 0
d 185 181 150 182 176 0
d 186 181 150 182 176 0
d 187 1 2 6 7 12 13 18 23 24 29 30 35 40 45 50 55 60 65 70 75 80 85 90 95 100 105 110 115 120 125 130 135 140 145 150 154 158 163 167 171 176 181 182 0
d 189 188 7 0
d 190 188 7 0
d 191 1 2 6 7 12 13 18 23 24 29 30 35 40 45 50 55 60 65 70 75 80 85 90 95 100 105 110 115 120 125 130 135 140 145 150 154 158 163 167 171 176 181 182 188 0
d 193 188 13 0
d 194 192 188 13 0
d 195 192 188 13 0
d 196 1 2 6 7 12 13 18 23 24 29 30 35 40 45 50 55 60 65 70 75 80 85 90 95 100 105 110 115 120 125 130 135 140 145 150 154 158 163 167 171 176 181 182 188 192 0
d 198 192 171 0
d 199 197 192 171 0
d 200 197 192 171 0
d 201 1 2 6 7 12 13 18 23 24 29 30 35 40 45 50 55 60 65 70 75 80 85 90 95 100 105 110 115 120 125 130 135 140 145 150 154 158 163 167 171 176 181 182 188 192 197 0
d 204 150 203 0
d 205 150 203 197 0
d 206 202 150 203 197 0
d 207 202 150 203 197 0
d 208 1 2 6 7 12 13 18 23 24 29 30 35 40 45 50 55 60 65 70 75 80 85 90 95 100 105 110 115 120 125 130 135 140 145 150 154 158 163 167 171 176 181 182 188 192 197 202 203 0
d 210 209 7 13 0
d 211 209 7 13 0
d 212 1 2 6 7 12 13 18 23 24 29 30 35 40 45 50 55 60 65 70 75 80 85 90 95 100 105 110 115 120 125 130 135 140 145 150 154 158 163 167 171 176 181 182 188 192 197 202 203 209 0
d 214 209 171 0
d 215 213 209 171 0
d 216 213 209 171 0
d 217 1 2 6 7 12 13 18 23 24 29 30 35 40 45 50 55 60 65 70 75 80 85 90 95 100 105 110 115 120 125 130 135 140 145 150 154 158 163 167 171 176 181 182 188 192 197 202 203 209 213 0
d 220 150 219 0
d 221 150 219 213 0
d 222 218 150 219 213 0
d 223 218 150 219 213 0
d 224 1 2 6 7 12 13 18 23 24 29 30 35 40 45 50 55 60 65 70 75 80 85 90 95 100 105 110 115 120 125 130 135 140 145 150 154 158 163 167 171 176 181 182 188 192 197 202 203 209 213 218 219 0
d 227 150 226 0
d 228 225 150 226 0
d 229 225 150 226 0
d 230 1 2 6 7 12 13 18 23 24 29 30 35 40 45 50 55 60 65 70 75 80 85 90 95 100 105 110 115 120 125 130 135 140 145 150 154 158 163 167 171 176 181 182 188 192 197 202 203 209 213 218 219 225 226 0
d 232 188 154 0
d 233 231 188 154 0
d 234 231 188 154 0
d 235 1 2 6 7 12 13 18 23 24 29 30 35 40 45 50 55 60 65 70 75 80 85 90 95 100 105 110 115 120 125 130 135 140 145 150 154 158 163 167 171 176 181 182 188 192 197 202 203 209 213 218 219 225 226 231 0
d 237 231 171 0
d 238 236 231 171 0
d 239 236 231 171 0
d 240 1 2 6 7 12 13 18 23 24 29 30 35 40 45 50 55 60 65 70 75 80 85 90 95 100 105 110 115 120 125 130 135 140 145 150 154 158 163 167 171 176 181 182 188 192 197 202 203 209 213 218 219 225 226 231 236 0
d 242 241 236 0
d 243 241 236 0
d 244 1 2 6 7 12 13 18 23 24 29 30 35 40 45 50 55 60 65 70 75 80 85 90 95 100 105 110 115 120 125 130 135 140 145 150 154 158 163 167 171 176 181 182 188 192 197 202 203 209 213 218 219 225 226 231 236 241 0
d 246 24 167 0
d 247 245 24 167 0
d 248 245 24 167 0
d 249 1 2 6 7 12 13 18 23 24 29 30 35 40 45 50 55 60 65 70 75 80 85 90 95 100 105 110 115 120 125 130 135 140 145 150 154 158 163 167 171 176 181 182 188 192 197 202 203 209 213 218 219 225 226 231 236 241 245 0
d 251 231 245 0
d 252 250 231 245 0
d 253 250 231 245 0
d 254 1 2 6 7 12 13 18 23 24 29 30 35 40 45 50 55 60 65 70 75 80 85 90 95 100 105 110 115 120 125 130 135 140 145 150 154 158 163 167 171 176 181 182 188 192 197 202 203 209 213 218 219 225 226 231 236 241 245 250 0
d 256 158 245 0
d 257 255 158 245 0
d 258 255 158 245 0
d 259 1 2 6 7 12 13 18 23 24 29 30 35 40 45 50 55 60 65 70 75 80 85 90 95 100 105 110 115 120 125 130 135 140 145 150 154 158 163 167 171 176 181 182 188 192 197 202 203 209 213 218 219 225 226 231 236 241 245 250 255 0
d 261 192 245 0
d 262 260 192 245 0
d 263 260 192 245 0
d 264 1 2 6 7 12 13 18 23 24 29 30 35 40 45 50 55 60 65 70 75 80 85 90 95 100 105 110 115 120 125 130 135 140 145 150 154 158 163 167 171 176 181 182 188 192 197 202 203 209 213 218 219 225 226 231 236 241 245 250 255 260 0
d 266 209 245 0
d 267 265 209 245 0
d 268 265 209 245 0
d 269 1 2 6 7 12 13 18 23 24 29 30 35 40 45 50 55 60 65 70 75 80 85 90 95 100 105 110 115 120 125 130 135 140 145 150 154 158 163 167 171 176 181 182 188 192 197 202 203 209 213 218 219 225 226 231 236 241 245 250 255 260 265 0
d 271 163 30 0
d 272 270 163 30 0
d 273 270 163 30 0
d 274 1 2 6 7 12 13 18 23 24 29 30 35 40 45 50 55 60 65 70 75 80 85 90 95 100 105 110 115 120 125 130 135 140 145 150 154 158 163 167 171 176 181 182 188 192 197 202 203 209 213 218 219 225 226 231 236 241 245 250 255 260 265 270 0
d 276 231 270 0
d 277 275 231 270 0
d 278 275 231 270 0
d 279 1 2 6 7 12 13 18 23 24 29 30 35 40 45 50 55 60 65 70 75 80 85 90 95 100 105 110 115 120 125 130 135 140 145 150 154 158 163 167 171 176 181 182 188 192 197 202 203 209 213 218 219 225 226 231 236 241 245 250 255 260 265 270 275 0
d 281 158 270 0
d 282 280 158 270 0
d 283 280 158 270 0
d 284 1 2 6 7 12 13 18 23 24 29 30 35 40 45 50 55 60 65 70 75 80 85 90 95 100 105 110 115 120 125 130 135 140 145 150 154 158 163 167 171 176 181 182 188 192 197 202 203 209 213 218 219 225 226 231 236 241 245 250 255 260 265 270 275 280 0
d 286 192 270 0
d 287 285 192 270 0
d 288 285 192 270 0
d 289 1 2 6 7 12 13 18 23 24 29 30 35 40 45 50 55 60 65 70 75 80 85 90 95 100 105 110 115 120 125 130 135 140 145 150 154 158 163 167 171 176 181 182 188 192 197 202 203 209 213 218 219 225 226 231 236 241 245 250 255 260 265 270 275 280 285 0
d 291 209 270 0
d 292 290 209 270 0
d 293 290 209 270 0
d 294 1 2 6 7 12 13 18 23 24 29 30 35 40 45 50 55 60 65 70 75 80 85 90 95 100 105 110 115 120 125 130 135 140 145 150 154 158 163 167 171 176 181 182 188 192 197 202 203 209 213 218 219 225 226 231 236 241 245 250 255 260 265 270 275 280 285 290 0
d 296 295 24 30 0
d 297 295 24 30 0
d 298 1 2 6 7 12 13 18 23 24 29 30 35 40 45 50 55 60 65 70 75 80 85 90 95 100 105 110 115 120 125 130 135 140 145 150 154 158 163 167 171 176 181 182 188 192 197 202 203 209 213 218 219 225 226 231 236 241 245 250 255 260 265 270 275 280 285 290 295 0
d 300 231 295 0
d 301 299 231 295 0
d 302 299 231 295 0
d 303 1 2 6 7 12 13 18 23 24 29 30 35 40 45 50 55 60 65 70 75 80 85 90 95 100 105 110 115 120 125 130 135 140 145 150 154 158 163 167 171 176 181 182 188 192 197 202 203 209 213 218 219 225 226 231 236 241 245 250 255 260 265 270 275 280 285 290 295 299 0
d 305 158 295 0
d 306 304 158 295 0
d 307 304 158 295 0
d 308 1 2 6 7 12 13 18 23 24 29 30 35 40 45 50 55 60 65 70 75 80 85 90 95 100 105 110 115 120 125 130 135 140 145 150 154 158 163 167 171 176 181 182 188 192 197 202 203 209 213 218 219 225 226 231 236 241 245 250 255 260 265 270 275 280 285 290 295 299 304 0
d 310 192 295 0
d 311 309 192 295 0
d 312 309 192 295 0
d 313 1 2 6 7 12 13 18 23 24 29 30 35 40 45 50 55 60 65 70 75 80 85 90 95 100 105 110 115 120 125 130 135 140 145 150 154 158 163 167 171 176 181 182 188 192 197 202 203 209 213 218 219 225 226 231 236 241 245 250 255 260 265 270 275 280 285 290 295 299 304 309 0
d 315 209 295 0
d 316 314 209 295 0
d 317 314 209 295 0
d 318 1 2 6 7 12 13 18 23 24 29 30 35 40 45 50 55 60 65 70 75 80 85 90 95 100 105 110 115 120 125 130 135 140 145 150 154 158 163 167 171 176 181 182 188 192 197 202 203 209 213 218 219 225 226 231 236 241 245 250 255 260 265 270 275 280 285 290 295 299 304 309 314 0
d 320 319 171 0
d 321 319 171 0
d 322 1 2 6 7 12 13 18 23 24 29 30 35 40 45 50 55 60 65 70 75 80 85 90 95 100 105 110 115 120 125 130 135 140 145 150 154 158 163 167 171 176 181 182 188 192 197 202 203 209 213 218 219 225 226 231 236 241 245 250 255 260 265 270 275 280 285 290 295 299 304 309 314 319 0
d 324 323 188 0
d 325 323 188 0
d 326 1 2 6 7 12 13 18 23 24 29 30 35 40 45 50 55 60 65 70 75 80 85 90 95 100 105 110 115 120 125 130 135 140 145 150 154 158 163 167 171 176 181 182 188 192 197 202 203 209 213 218 219 225 226 231 236 241 245 250 255 260 265 270 275 280 285 290 295 299 304 309 314 319 323 0
d 328 327 299 0
d 329 327 299 0
d 330 1 2 6 7 12 13 18 23 24 29 30 35 40 45 50 55 60 65 70 75 80 85 90 95 100 105 110 115 120 125 130 135 140 145 150 154 158 163 167 171 176 181 182 188 192 197 202 203 209 213 218 219 225 226 231 236 241 245 250 255 260 265 270 275 280 285 290 295 299 304 309 314 319 323 327 0
d 333 2 332 0
d 334 331 2 332 0
d 335 331 2 332 0
d 336 1 2 6 7 12 13 18 23 24 29 30 35 40 45 50 55 60 65 70 75 80 85 90 95 100 105 110 115 120 125 130 135 140 145 150 154 158 163 167 171 176 181 182 188 192 197 202 203 209 213 218 219 225 226 231 236 241 245 250 255 260 265 270 275 280 285 290 295 299 304 309 314 319 323 327 331 332 0
d 338 337 304 0
d 339 337 304 0
d 340 1 2 6 7 12 13 18 23 24 29 30 35 40 45 50 55 60 65 70 75 80 85 90 95 100 105 110 115 120 125 130 135 140 145 150 154 158 163 167 171 176 181 182 188 192 197 202 203 209 213 218 219 225 226 231 236 241 245 250 255 260 265 270 275 280 285 290 295 299 304 309 314 319 323 327 331 332 337 0
d 343 150 342 0
d 344 150 342 250 0
d 346 150 345 0
d 347 150 345 255 0
d 348 150 342 250 345 255 0
d 350 150 349 0
d 351 150 349 260 0
d 353 150 352 0
d 354 150 352 265 0
d 355 150 349 260 352 265 0
d 356 150 342 250 345 255 349 260 352 265 0
d 357 181 202 218 225 241 150 342 250 345 255 349 260 352 265 0
d 359 150 358 0
d 360 150 358 275 0
d 362 150 361 0
d 363 150 361 280 0
d 364 150 358 275 361 280 0
d 366 150 365 0
d 367 150 365 285 0
d 369 150 368 0
d 370 150 368 290 0
d 371 150 365 285 368 290 0
d 372 150 358 275 361 280 365 285 368 290 0
d 374 150 373 0
d 375 150 373 299 0
d 377 150 376 0
d 378 150 376 304 0
d 379 150 373 299 376 304 0
d 381 150 380 0
d 382 150 380 309 0
d 384 150 383 0
d 385 150 383 314 0
d 386 150 380 309 383 314 0
d 387 150 373 299 376 304 380 309 383 314 0
d 388 150 358 275 361 280 365 285 368 290 373 299 376 304 380 309 383 314 0
d 389 181 202 218 225 241 150 342 250 345 255 349 260 352 265 358 275 361 280 365 285 368 290 373 299 376 304 380 309 383 314 0
d 391 2 390 0
d 392 2 390 236 0
d 394 2 393 0
d 395 2 393 176 0
d 396 2 390 236 393 176 0
d 399 2 398 0
d 400 2 398 213 0
d 401 2 496 319 323 13 398 213 0
d 402 2 390 236 393 176 496 319 323 13 398 213 0
d 404 2 403 0
d 405 2 403 250 0
d 407 2 406 0
d 408 2 406 255 0
d 409 2 403 250 406 255 0
d 411 2 410 0
d 412 2 410 260 0
d 414 2 413 0
d 415 2 413 265 0
d 416 2 410 260 413 265 0
d 417 2 403 250 406 255 410 260 413 265 0
d 418 2 390 236 393 176 496 319 323 13 398 213 403 250 406 255 410 260 413 265 0
d 420 2 419 0
d 421 2 419 275 0
d 423 2 422 0
d 424 2 422 280 0
d 425 2 419 275 422 280 0
d 427 2 426 0
d 428 2 426 285 0
d 430 2 429 0
d 431 2 429 290 0
d 432 2 426 285 429 290 0
d 433 2 419 275 422 280 426 285 429 290 0
d 436 2 435 0
d 437 2 435 309 0
d 439 2 438 0
d 440 2 438 314 0
d 441 2 435 309 438 314 0
d 442 327 331 337 2 517 435 309 438 314 0
d 443 2 419 275 422 280 426 285 429 290 327 331 337 517 435 309 438 314 0
d 444 2 390 236 393 176 496 319 323 13 398 213 403 250 406 255 410 260 413 265 419 275 422 280 426 285 429 290 327 331 337 517 435 309 438 314 0
d 445 181 202 218 225 241 150 342 250 345 255 349 260 352 265 358 275 361 280 365 285 368 290 373 299 376 304 380 309 383 314 2 390 236 393 176 496 319 323 13 398 213 403 406 410 413 419 422 426 429 327 331 337 517 435 438 0
d 446 1 226 0
d 447 1 226 40 0
d 448 1 182 0
d 449 1 182 50 0
d 450 1 226 40 182 50 0
d 451 1 203 0
d 452 1 203 60 0
d 453 1 219 0
d 454 1 219 70 0
d 455 1 203 60 219 70 0
d 456 1 226 40 182 50 203 60 219 70 0
d 457 1 342 0
d 458 1 342 80 0
d 459 1 345 0
d 460 1 345 85 0
d 461 1 342 80 345 85 0
d 462 1 349 0
d 463 1 349 90 0
d 464 1 352 0
d 465 1 352 95 0
d 466 1 349 90 352 95 0
d 467 1 342 80 345 85 349 90 352 95 0
d 468 1 226 40 182 50 203 60 219 70 342 80 345 85 349 90 352 95 0
d 469 1 358 0
d 470 1 358 105 0
d 471 1 361 0
d 472 1 361 110 0
d 473 1 358 105 361 110 0
d 474 1 365 0
d 475 1 365 115 0
d 476 1 368 0
d 477 1 368 120 0
d 478 1 365 115 368 120 0
d 479 1 358 105 361 110 365 115 368 120 0
d 480 1 373 0
d 481 1 373 130 0
d 482 1 376 0
d 483 1 376 135 0
d 484 1 373 130 376 135 0
d 485 1 380 0
d 486 1 380 140 0
d 487 1 383 0
d 488 1 383 145 0
d 489 1 380 140 383 145 0
d 490 1 373 130 376 135 380 140 383 145 0
d 491 1 358 105 361 110 365 115 368 120 373 130 376 135 380 140 383 145 0
d 492 1 226 40 182 50 203 60 219 70 342 80 345 85 349 90 352 95 358 105 361 110 365 115 368 120 373 130 376 135 380 140 383 145 0
d 493 2 390 40 0
d 494 2 393 50 0
d 495 2 390 40 393 50 0
d 497 2 496 0
d 498 2 496 60 0
d 499 2 398 70 0
d 500 2 496 60 398 70 0
d 501 2 390 40 393 50 496 60 398 70 0
d 502 2 403 80 0
d 503 2 406 85 0
d 504 2 403 80 406 85 0
d 505 2 410 90 0
d 506 2 413 95 0
d 507 2 410 90 413 95 0
d 508 2 403 80 406 85 410 90 413 95 0
d 509 2 390 40 393 50 496 60 398 70 403 80 406 85 410 90 413 95 0
d 510 2 419 105 0
d 511 2 422 110 0
d 512 2 419 105 422 110 0
d 513 2 426 115 0
d 514 2 429 120 0
d 515 2 426 115 429 120 0
d 516 2 419 105 422 110 426 115 429 120 0
d 518 2 517 0
d 519 2 517 130 0
d 520 2 332 135 0
d 521 2 517 130 332 135 0
d 522 2 435 140 0
d 523 2 438 145 0
d 524 2 435 140 438 145 0
d 525 2 517 130 332 135 435 140 438 145 0
d 526 2 419 105 422 110 426 115 429 120 517 130 332 135 435 140 438 145 0
d 527 2 390 40 393 50 496 60 398 70 403 80 406 85 410 90 413 95 419 105 422 110 426 115 429 120 517 130 332 135 435 140 438 145 0
d 528 1 226 40 182 50 203 60 219 70 342 80 345 85 349 90 352 95 358 105 361 110 365 115 368 120 373 130 376 135 380 140 383 145 2 390 393 496 398 403 406 410 413 419 422 426 429 517 332 435 438 0
d 529 181 202 218 225 241 150 342 250 345 255 349 260 352 265 358 275 361 280 365 285 368 290 373 299 376 304 380 309 383 314 2 390 236 393 176 496 319 323 13 398 213 403 406 410 413 419 422 426 429 327 331 337 517 435 438 1 226 40 182 50 203 60 219 70 80 85 90 95 105 110 115 120 130 135 140 145 332 0
d 530 1 2 6 7 12 13 18 23 24 29 30 35 40 45 50 55 60 65 70 75 80 85 90 95 100 105 110 115 120 125 130 135 140 145 150 154 158 163 167 171 176 181 182 188 192 197 202 203 209 213 218 219 225 226 231 236 241 245 250 255 260 265 270 275 280 285 290 295 299 304 309 314 319 323 327 331 332 337 342 345 349 352 358 361 365 368 373 376 380 383 390 393 496 398 403 406 410 413 419 422 426 429 517 435 438 0
3 2 0
-3 -2 0
4 -1 -3 0
4 1 3 0
-4 -1 3 0
-4 1 -3 0
5 4 0
-5 -4 0
8 7 0
-8 -7 0
9 -6 -8 0
9 6 8 0
-9 -6 8 0
-9 6 -8 0
10 9 0
-10 -9 0
11 -5 0
11 -10 0
-11 5 10 0
14 13 0
-14 -13 0
15 -12 -14 0
15 12 14 0
-15 -12 14 0
-15 12 -14 0
16 15 0
-16 -15 0
17 -11 0
17 -16 0
-17 11 16 0
-19 6 0
-19 12 0
19 -6 -12 0
20 -18 -19 0
20 18 19 0
-20 -18 19 0
-20 18 -19 0
21 20 0
-21 -20 0
22 -17 0
22 -21 0
-22 17 21 0
25 24 0
-25 -24 0
26 -23 -25 0
26 23 25 0
-26 -23 25 0
-26 23 -25 0
27 26 0
-27 -26 0
28 -22 0
28 -27 0
-28 22 27 0
31 30 0
-31 -30 0
32 -29 -31 0
32 29 31 0
-32 -29 31 0
-32 29 -31 0
33 32 0
-33 -32 0
34 -28 0
34 -33 0
-34 28 33 0
-36 23 0
-36 29 0
36 -23 -29 0
37 -35 -36 0
37 35 36 0
-37 -35 36 0
-37 35 -36 0
38 37 0
-38 -37 0
39 -34 0
39 -38 0
-39 34 38 0
-41 18 0
-41 35 0
41 -18 -35 0
42 -40 -41 0
42 40 41 0
-42 -40 41 0
-42 40 -41 0
43 42 0
-43 -42 0
44 -39 0
44 -43 0
-44 39 43 0
-46 7 0
-46 12 0
46 -7 -12 0
47 -45 -46 0
47 45 46 0
-47 -45 46 0
-47 45 -46 0
48 47 0
-48 -47 0
49 -44 0
49 -48 0
-49 44 48 0
-51 45 0
-51 35 0
51 -45 -35 0
52 -50 -51 0
52 50 51 0
-52 -50 51 0
-52 50 -51 0
53 52 0
-53 -52 0
54 -49 0
54 -53 0
-54 49 53 0
-56 6 0
-56 13 0
56 -6 -13 0
57 -55 -56 0
57 55 56 0
-57 -55 56 0
-57 55 -56 0
58 57 0
-58 -57 0
59 -54 0
59 -58 0
-59 54 58 0
-61 55 0
-61 35 0
61 -55 -35 0
62 -60 -61 0
62 60 61 0
-62 -60 61 0
-62 60 -61 0
63 62 0
-63 -62 0
64 -59 0
64 -63 0
-64 59 63 0
-66 7 0
-66 13 0
66 -7 -13 0
67 -65 -66 0
67 65 66 0
-67 -65 66 0
-67 65 -66 0
68 67 0
-68 -67 0
69 -64 0
69 -68 0
-69 64 68 0
-71 65 0
-71 35 0
71 -65 -35 0
72 -70 -71 0
72 70 71 0
-72 -70 71 0
-72 70 -71 0
73 72 0
-73 -72 0
74 -69 0
74 -73 0
-74 69 73 0
-76 24 0
-76 29 0
76 -24 -29 0
77 -75 -76 0
77 75 76 0
-77 -75 76 0
-77 75 -76 0
78 77 0
-78 -77 0
79 -74 0
79 -78 0
-79 74 78 0
-81 18 0
-81 75 0
81 -18 -75 0
82 -80 -81 0
82 80 81 0
-82 -80 81 0
-82 80 -81 0
83 82 0
-83 -82 0
84 -79 0
84 -83 0
-84 79 83 0
-86 45 0
-86 75 0
86 -45 -75 0
87 -85 -86 0
87 85 86 0
-87 -85 86 0
-87 85 -86 0
88 87 0
-88 -87 0
89 -84 0
89 -88 0
-89 84 88 0
-91 55 0
-91 75 0
91 -55 -75 0
92 -90 -91 0
92 90 91 0
-92 -90 91 0
-92 90 -91 0
93 92 0
-93 -92 0
94 -89 0
94 -93 0
-94 89 93 0
-96 65 0
-96 75 0
96 -65 -75 0
97 -95 -96 0
97 95 96 0
-97 -95 96 0
-97 95 -96 0
98 97 0
-98 -97 0
99 -94 0
99 -98 0
-99 94 98 0
-101 23 0
-101 30 0
101 -23 -30 0
102 -100 -101 0
102 100 101 0
-102 -100 101 0
-102 100 -101 0
103 102 0
-103 -102 0
104 -99 0
104 -103 0
-104 99 103 0
-106 18 0
-106 100 0
106 -18 -100 0
107 -105 -106 0
107 105 106 0
-107 -105 106 0
-107 105 -106 0
108 107 0
-108 -107 0
109 -104 0
109 -108 0
-109 104 108 0
-111 45 0
-111 100 0
111 -45 -100 0
112 -110 -111 0
112 110 111 0
-112 -110 111 0
-112 110 -111 0
113 112 0
-113 -112 0
114 -109 0
114 -113 0
-114 109 113 0
-116 55 0
-116 100 0
116 -55 -100 0
117 -115 -116 0
117 115 116 0
-117 -115 116 0
-117 115 -116 0
118 117 0
-118 -117 0
119 -114 0
119 -118 0
-119 114 118 0
-121 65 0
-121 100 0
121 -65 -100 0
122 -120 -121 0
122 120 121 0
-122 -120 121 0
-122 120 -121 0
123 122 0
-123 -122 0
124 -119 0
124 -123 0
-124 119 123 0
-126 24 0
-126 30 0
126 -24 -30 0
127 -125 -126 0
127 125 126 0
-127 -125 126 0
-127 125 -126 0
128 127 0
-128 -127 0
129 -124 0
129 -128 0
-129 124 128 0
-131 18 0
-131 125 0
131 -18 -125 0
132 -130 -131 0
132 130 131 0
-132 -130 131 0
-132 130 -131 0
133 132 0
-133 -132 0
134 -129 0
134 -133 0
-134 129 133 0
-136 45 0
-136 125 0
136 -45 -125 0
137 -135 -136 0
137 135 136 0
-137 -135 136 0
-137 135 -136 0
138 137 0
-138 -137 0
139 -134 0
139 -138 0
-139 134 138 0
-141 55 0
-141 125 0
141 -55 -125 0
142 -140 -141 0
142 140 141 0
-142 -140 141 0
-142 140 -141 0
143 142 0
-143 -142 0
144 -139 0
144 -143 0
-144 139 143 0
-146 65 0
-146 125 0
146 -65 -125 0
147 -145 -146 0
147 145 146 0
-147 -145 146 0
-147 145 -146 0
148 147 0
-148 -147 0
149 -144 0
149 -148 0
-149 144 148 0
151 -150 -3 0
151 150 3 0
-151 -150 3 0
-151 150 -3 0
152 151 0
-152 -151 0
153 -149 0
153 -152 0
-153 149 152 0
155 -154 -14 0
155 154 14 0
-155 -154 14 0
-155 154 -14 0
156 155 0
-156 -155 0
157 -153 0
157 -156 0
-157 153 156 0
-159 7 0
-159 154 0
159 -7 -154 0
160 -158 -159 0
160 158 159 0
-160 -158 159 0
-160 158 -159 0
161 160 0
-161 -160 0
162 -157 0
162 -161 0
-162 157 161 0
164 -163 -25 0
164 163 25 0
-164 -163 25 0
-164 163 -25 0
165 164 0
-165 -164 0
166 -162 0
166 -165 0
-166 162 165 0
168 -167 -31 0
168 167 31 0
-168 -167 31 0
-168 167 -31 0
169 168 0
-169 -168 0
170 -166 0
170 -169 0
-170 166 169 0
-172 163 0
-172 167 0
172 -163 -167 0
173 -171 -172 0
173 171 172 0
-173 -171 172 0
-173 171 -172 0
174 173 0
-174 -173 0
175 -170 0
175 -174 0
-175 170 174 0
-177 158 0
-177 171 0
177 -158 -171 0
178 -176 -177 0
178 176 177 0
-178 -176 177 0
-178 176 -177 0
179 178 0
-179 -178 0
180 -175 0
180 -179 0
-180 175 179 0
-183 150 0
-183 182 0
183 -150 -182 0
-184 183 0
-184 176 0
184 -183 -176 0
185 -181 -184 0
185 181 184 0
-185 -181 184 0
-185 181 -184 0
186 185 0
-186 -185 0
187 -180 0
187 -186 0
-187 180 186 0
189 -188 -8 0
189 188 8 0
-189 -188 8 0
-189 188 -8 0
190 189 0
-190 -189 0
191 -187 0
191 -190 0
-191 187 190 0
-193 188 0
-193 13 0
193 -188 -13 0
194 -192 -193 0
194 192 193 0
-194 -192 193 0
-194 192 -193 0
195 194 0
-195 -194 0
196 -191 0
196 -195 0
-196 191 195 0
-198 192 0
-198 171 0
198 -192 -171 0
199 -197 -198 0
199 197 198 0
-199 -197 198 0
-199 197 -198 0
200 199 0
-200 -199 0
201 -196 0
201 -200 0
-201 196 200 0
-204 150 0
-204 203 0
204 -150 -203 0
-205 204 0
-205 197 0
205 -204 -197 0
206 -202 -205 0
206 202 205 0
-206 -202 205 0
-206 202 -205 0
207 206 0
-207 -206 0
208 -201 0
208 -207 0
-208 201 207 0
210 -209 -66 0
210 209 66 0
-210 -209 66 0
-210 209 -66 0
211 210 0
-211 -210 0
212 -208 0
212 -211 0
-212 208 211 0
-214 209 0
-214 171 0
214 -209 -171 0
215 -213 -214 0
215 213 214 0
-215 -213 214 0
-215 213 -214 0
216 215 0
-216 -215 0
217 -212 0
217 -216 0
-217 212 216 0
-220 150 0
-220 219 0
220 -150 -219 0
-221 220 0
-221 213 0
221 -220 -213 0
222 -218 -221 0
222 218 221 0
-222 -218 221 0
-222 218 -221 0
223 222 0
-223 -222 0
224 -217 0
224 -223 0
-224 217 223 0
-227 150 0
-227 226 0
227 -150 -226 0
228 -225 -227 0
228 225 227 0
-228 -225 227 0
-228 225 -227 0
229 228 0
-229 -228 0
230 -224 0
230 -229 0
-230 224 229 0
-232 188 0
-232 154 0
232 -188 -154 0
233 -231 -232 0
233 231 232 0
-233 -231 232 0
-233 231 -232 0
234 233 0
-234 -233 0
235 -230 0
235 -234 0
-235 230 234 0
-237 231 0
-237 171 0
237 -231 -171 0
238 -236 -237 0
238 236 237 0
-238 -236 237 0
-238 236 -237 0
239 238 0
-239 -238 0
240 -235 0
240 -239 0
-240 235 239 0
242 -241 -236 0
242 241 236 0
-242 -241 236 0
-242 241 -236 0
243 242 0
-243 -242 0
244 -240 0
244 -243 0
-244 240 243 0
-246 24 0
-246 167 0
246 -24 -167 0
247 -245 -246 0
247 245 246 0
-247 -245 246 0
-247 245 -246 0
248 247 0
-248 -247 0
249 -244 0
249 -248 0
-249 244 248 0
-251 231 0
-251 245 0
251 -231 -245 0
252 -250 -251 0
252 250 251 0
-252 -250 251 0
-252 250 -251 0
253 252 0
-253 -252 0
254 -249 0
254 -253 0
-254 249 253 0
-256 158 0
-256 245 0
256 -158 -245 0
257 -255 -256 0
257 255 256 0
-257 -255 256 0
-257 255 -256 0
258 257 0
-258 -257 0
259 -254 0
259 -258 0
-259 254 258 0
-261 192 0
-261 245 0
261 -192 -245 0
262 -260 -261 0
262 260 261 0
-262 -260 261 0
-262 260 -261 0
263 262 0
-263 -262 0
264 -259 0
264 -263 0
-264 259 263 0
-266 209 0
-266 245 0
266 -209 -245 0
267 -265 -266 0
267 265 266 0
-267 -265 266 0
-267 265 -266 0
268 267 0
-268 -267 0
269 -264 0
269 -268 0
-269 264 268 0
-271 163 0
-271 30 0
271 -163 -30 0
272 -270 -271 0
272 270 271 0
-272 -270 271 0
-272 270 -271 0
273 272 0
-273 -272 0
274 -269 0
274 -273 0
-274 269 273 0
-276 231 0
-276 270 0
276 -231 -270 0
277 -275 -276 0
277 275 276 0
-277 -275 276 0
-277 275 -276 0
278 277 0
-278 -277 0
279 -274 0
279 -278 0
-279 274 278 0
-281 158 0
-281 270 0
281 -158 -270 0
282 -280 -281 0
282 280 281 0
-282 -280 281 0
-282 280 -281 0
283 282 0
-283 -282 0
284 -279 0
284 -283 0
-284 279 283 0
-286 192 0
-286 270 0
286 -192 -270 0
287 -285 -286 0
287 285 286 0
-287 -285 286 0
-287 285 -286 0
288 287 0
-288 -287 0
289 -284 0
289 -288 0
-289 284 288 0
-291 209 0
-291 270 0
291 -209 -270 0
292 -290 -291 0
292 290 291 0
-292 -290 291 0
-292 290 -291 0
293 292 0
-293 -292 0
294 -289 0
294 -293 0
-294 289 293 0
296 -295 -126 0
296 295 126 0
-296 -295 126 0
-296 295 -126 0
297 296 0
-297 -296 0
298 -294 0
298 -297 0
-298 294 297 0
-300 231 0
-300 295 0
300 -231 -295 0
301 -299 -300 0
301 299 300 0
-301 -299 300 0
-301 299 -300 0
302 301 0
-302 -301 0
303 -298 0
303 -302 0
-303 298 302 0
-305 158 0
-305 295 0
305 -158 -295 0
306 -304 -305 0
306 304 305 0
-306 -304 305 0
-306 304 -305 0
307 306 0
-307 -306 0
308 -303 0
308 -307 0
-308 303 307 0
-310 192 0
-310 295 0
310 -192 -295 0
311 -309 -310 0
311 309 310 0
-311 -309 310 0
-311 309 -310 0
312 311 0
-312 -311 0
313 -308 0
313 -312 0
-313 308 312 0
-315 209 0
-315 295 0
315 -209 -295 0
316 -314 -315 0
316 314 315 0
-316 -314 315 0
-316 314 -315 0
317 316 0
-317 -316 0
318 -313 0
318 -317 0
-318 313 317 0
320 -319 -171 0
320 319 171 0
-320 -319 171 0
-320 319 -171 0
321 320 0
-321 -320 0
322 -318 0
322 -321 0
-322 318 321 0
324 -323 -188 0
324 323 188 0
-324 -323 188 0
-324 323 -188 0
325 324 0
-325 -324 0
326 -322 0
326 -325 0
-326 322 325 0
328 -327 -299 0
328 327 299 0
-328 -327 299 0
-328 327 -299 0
329 328 0
-329 -328 0
330 -326 0
330 -329 0
-330 326 329 0
-333 2 0
-333 332 0
333 -2 -332 0
334 -331 -333 0
334 331 333 0
-334 -331 333 0
-334 331 -333 0
335 334 0
-335 -334 0
336 -330 0
336 -335 0
-336 330 335 0
338 -337 -304 0
338 337 304 0
-338 -337 304 0
-338 337 -304 0
339 338 0
-339 -338 0
340 -336 0
340 -339 0
-340 336 339 0
-343 150 0
-343 342 0
343 -150 -342 0
-344 343 0
-344 250 0
344 -343 -250 0
-346 150 0
-346 345 0
346 -150 -345 0
-347 346 0
-347 255 0
347 -346 -255 0
348 -344 0
348 -347 0
-348 344 347 0
-350 150 0
-350 349 0
350 -150 -349 0
-351 350 0
-351 260 0
351 -350 -260 0
-353 150 0
-353 352 0
353 -150 -352 0
-354 353 0
-354 265 0
354 -353 -265 0
355 -351 0
355 -354 0
-355 351 354 0
356 -348 0
356 -355 0
-356 348 355 0
357 -341 0
357 -356 0
-357 341 356 0
-359 150 0
-359 358 0
359 -150 -358 0
-360 359 0
-360 275 0
360 -359 -275 0
-362 150 0
-362 361 0
362 -150 -361 0
-363 362 0
-363 280 0
363 -362 -280 0
364 -360 0
364 -363 0
-364 360 363 0
-366 150 0
-366 365 0
366 -150 -365 0
-367 366 0
-367 285 0
367 -366 -285 0
-369 150 0
-369 368 0
369 -150 -368 0
-370 369 0
-370 290 0
370 -369 -290 0
371 -367 0
371 -370 0
-371 367 370 0
372 -364 0
372 -371 0
-372 364 371 0
-374 150 0
-374 373 0
374 -150 -373 0
-375 374 0
-375 299 0
375 -374 -299 0
-377 150 0
-377 376 0
377 -150 -376 0
-378 377 0
-378 304 0
378 -377 -304 0
379 -375 0
379 -378 0
-379 375 378 0
-381 150 0
-381 380 0
381 -150 -380 0
-382 381 0
-382 309 0
382 -381 -309 0
-384 150 0
-384 383 0
384 -150 -383 0
-385 384 0
-385 314 0
385 -384 -314 0
386 -382 0
386 -385 0
-386 382 385 0
387 -379 0
387 -386 0
-387 379 386 0
388 -372 0
388 -387 0
-388 372 387 0
389 -357 0
389 -388 0
-389 357 388 0
-391 2 0
-391 390 0
391 -2 -390 0
-392 391 0
-392 236 0
392 -391 -236 0
-394 2 0
-394 393 0
394 -2 -393 0
-395 394 0
-395 176 0
395 -394 -176 0
396 -392 0
396 -395 0
-396 392 395 0
-399 2 0
-399 398 0
399 -2 -398 0
-400 399 0
-400 213 0
400 -399 -213 0
401 -397 0
401 -400 0
-401 397 400 0
402 -396 0
402 -401 0
-402 396 401 0
-404 2 0
-404 403 0
404 -2 -403 0
-405 404 0
-405 250 0
405 -404 -250 0
-407 2 0
-407 406 0
407 -2 -406 0
-408 407 0
-408 255 0
408 -407 -255 0
409 -405 0
409 -408 0
-409 405 408 0
-411 2 0
-411 410 0
411 -2 -410 0
-412 411 0
-412 260 0
412 -411 -260 0
-414 2 0
-414 413 0
414 -2 -413 0
-415 414 0
-415 265 0
415 -414 -265 0
416 -412 0
416 -415 0
-416 412 415 0
417 -409 0
417 -416 0
-417 409 416 0
418 -402 0
418 -417 0
-418 402 417 0
-420 2 0
-420 419 0
420 -2 -419 0
-421 420 0
-421 275 0
421 -420 -275 0
-423 2 0
-423 422 0
423 -2 -422 0
-424 423 0
-424 280 0
424 -423 -280 0
425 -421 0
425 -424 0
-425 421 424 0
-427 2 0
-427 426 0
427 -2 -426 0
-428 427 0
-428 285 0
428 -427 -285 0
-430 2 0
-430 429 0
430 -2 -429 0
-431 430 0
-431 290 0
431 -430 -290 0
432 -428 0
432 -431 0
-432 428 431 0
433 -425 0
433 -432 0
-433 425 432 0
-436 2 0
-436 435 0
436 -2 -435 0
-437 436 0
-437 309 0
437 -436 -309 0
-439 2 0
-439 438 0
439 -2 -438 0
-440 439 0
-440 314 0
440 -439 -314 0
441 -437 440 0
441 437 -440 0
-441 -437 -440 0
-441 437 440 0
442 -434 0
442 -441 0
-442 434 441 0
443 -433 0
443 -442 0
-443 433 442 0
444 -418 0
444 -443 0
-444 418 443 0
445 -389 0
445 -444 0
-445 389 444 0
-446 1 0
-446 226 0
446 -1 -226 0
-447 446 0
-447 40 0
447 -446 -40 0
-448 1 0
-448 182 0
448 -1 -182 0
-449 448 0
-449 50 0
449 -448 -50 0
450 -447 0
450 -449 0
-450 447 449 0
-451 1 0
-451 203 0
451 -1 -203 0
-452 451 0
-452 60 0
452 -451 -60 0
-453 1 0
-453 219 0
453 -1 -219 0
-454 453 0
-454 70 0
454 -453 -70 0
455 -452 0
455 -454 0
-455 452 454 0
456 -450 0
456 -455 0
-456 450 455 0
-457 1 0
-457 342 0
457 -1 -342 0
-458 457 0
-458 80 0
458 -457 -80 0
-459 1 0
-459 345 0
459 -1 -345 0
-460 459 0
-460 85 0
460 -459 -85 0
461 -458 0
461 -460 0
-461 458 460 0
-462 1 0
-462 349 0
462 -1 -349 0
-463 462 0
-463 90 0
463 -462 -90 0
-464 1 0
-464 352 0
464 -1 -352 0
-465 464 0
-465 95 0
465 -464 -95 0
466 -463 0
466 -465 0
-466 463 465 0
467 -461 0
467 -466 0
-467 461 466 0
468 -456 0
468 -467 0
-468 456 467 0
-469 1 0
-469 358 0
469 -1 -358 0
-470 469 0
-470 105 0
470 -469 -105 0
-471 1 0
-471 361 0
471 -1 -361 0
-472 471 0
-472 110 0
472 -471 -110 0
473 -470 0
473 -472 0
-473 470 472 0
-474 1 0
-474 365 0
474 -1 -365 0
-475 474 0
-475 115 0
475 -474 -115 0
-476 1 0
-476 368 0
476 -1 -368 0
-477 476 0
-477 120 0
477 -476 -120 0
478 -475 0
478 -477 0
-478 475 477 0
479 -473 0
479 -478 0
-479 473 478 0
-480 1 0
-480 373 0
480 -1 -373 0
-481 480 0
-481 130 0
481 -480 -130 0
-482 1 0
-482 376 0
482 -1 -376 0
-483 482 0
-483 135 0
483 -482 -135 0
484 -481 0
484 -483 0
-484 481 483 0
-485 1 0
-485 380 0
485 -1 -380 0
-486 485 0
-486 140 0
486 -485 -140 0
-487 1 0
-487 383 0
487 -1 -383 0
-488 487 0
-488 145 0
488 -487 -145 0
489 -486 0
489 -488 0
-489 486 488 0
490 -484 0
490 -489 0
-490 484 489 0
491 -479 0
491 -490 0
-491 479 490 0
492 -468 0
492 -491 0
-492 468 491 0
-493 391 0
-493 40 0
493 -391 -40 0
-494 394 0
-494 50 0
494 -394 -50 0
495 -493 0
495 -494 0
-495 493 494 0
-497 2 0
-497 496 0
497 -2 -496 0
-498 497 0
-498 60 0
498 -497 -60 0
-499 399 0
-499 70 0
499 -399 -70 0
500 -498 0
500 -499 0
-500 498 499 0
501 -495 0
501 -500 0
-501 495 500 0
-502 404 0
-502 80 0
502 -404 -80 0
-503 407 0
-503 85 0
503 -407 -85 0
504 -502 0
504 -503 0
-504 502 503 0
-505 411 0
-505 90 0
505 -411 -90 0
-506 414 0
-506 95 0
506 -414 -95 0
507 -505 0
507 -506 0
-507 505 506 0
508 -504 0
508 -507 0
-508 504 507 0
509 -501 0
509 -508 0
-509 501 508 0
-510 420 0
-510 105 0
510 -420 -105 0
-511 423 0
-511 110 0
511 -423 -110 0
512 -510 0
512 -511 0
-512 510 511 0
-513 427 0
-513 115 0
513 -427 -115 0
-514 430 0
-514 120 0
514 -430 -120 0
515 -513 0
515 -514 0
-515 513 514 0
516 -512 0
516 -515 0
-516 512 515 0
-518 2 0
-518 517 0
518 -2 -517 0
-519 518 0
-519 130 0
519 -518 -130 0
-520 333 0
-520 135 0
520 -333 -135 0
521 -519 0
521 -520 0
-521 519 520 0
-522 436 0
-522 140 0
522 -436 -140 0
-523 439 0
-523 145 0
523 -439 -145 0
524 -522 0
524 -523 0
-524 522 523 0
525 -521 0
525 -524 0
-525 521 524 0
526 -516 0
526 -525 0
-526 516 525 0
527 -509 0
527 -526 0
-527 509 526 0
528 -492 0
528 -527 0
-528 492 527 0
529 -445 -528 0
529 445 528 0
-529 -445 528 0
-529 445 -528 0
530 -340 0
530 -529 0
-530 340 529 0
530 0
